Minimize
  obj: 0 + [ -32.984845004941285 x1 * x1 + 32.984845004941285 x1 * x2 + 32.984845004941285 x1 * x3 + 8.246211251235321 x1 * x4 - 32.984845004941285 x2 * x2 + 8.246211251235321 x2 * x3 + 32.984845004941285 x2 * x4 - 32.984845004941285 x3 * x3 + 32.984845004941285 x3 * x4 - 32.984845004941285 x4 * x4 ] / 2

Subject To

Binary
x1 x2 x3 x4

End